20255
1 0 0 0 0 1 1 1 1 0 0 1 0 0 1 0 0 1 0 0 1 0 0 0 1 1 0 0 0 0 
6 17 20 14 7 5 7 25 8 0 5 20 8 20 17 20 11 17 11 11 17 0 5 25 0 8 7 24 25 24 5 25 6 5 14 8 24 24 11 14 11 8 24 7 24 8 7 14 25 20 25 14 14 5 6 8 14 7 25 20 0 5 8 25 11 25 24 11 5 24 20 6 5 7 24 14 24 20 8 25 20 7 20 17 14 17 17 7 14 25 7 0 17 0 17 24 11 7 5 20 8 17 17 5 17 11 5 0 14 8 14 14 7 25 11 5 0 25 25 24 5 14 5 20 20 7 0 25 17 11 11 7 25 24 20 8 7 11 8 0 11 8 14 17 20 11 5 5 0 24 
